NAME: ipa-building-navigation
TYPE: TSP
COMMENT: This is the TSPlib file for using concorde
DIMENSION: 9
EDGE_WEIGHT_TYPE: EXPLICIT
EDGE_WEIGHT_FORMAT: FULL_MATRIX
EDGE_WEIGHT_SECTION
 0 493 548 137 274 487 493 328 583
 493 0 82 448 235 139 125 286 98
 548 82 0 505 289 196 166 331 176
 137 448 505 0 231 442 450 288 540
 274 235 289 231 0 229 235 298 327
 487 139 196 442 229 0 155 289 228
 493 125 166 450 235 155 0 269 224
 328 286 331 288 298 289 269 0 385
 583 98 176 540 327 228 224 385 0
EOF